
Gurobi 6.0.0 (linux64) logging started Mon Apr 13 22:01:01 2015

Read LP format model from file factorqpmip.lp
Reading time = 0.01 seconds
(null): 521 rows, 1019 columns, 6019 nonzeros
Optimize a model with 521 rows, 1019 columns and 6019 nonzeros
Model has 605 quadratic objective terms
Coefficient statistics:
  Matrix range    [1e-03, 5e+00]
  Objective range [2e-02, 9e+00]
  Bounds range    [1e-01, 1e+05]
  RHS range       [1e+00, 1e+02]
Found heuristic solution: objective 0.439723
Presolve removed 1 rows and 1 columns
Presolve time: 0.03s
Presolved: 520 rows, 1018 columns, 6010 nonzeros
Presolved model has 593 quadratic objective terms
Variable types: 518 continuous, 500 integer (500 binary)

Root relaxation: objective -4.616864e+00, 2504 iterations, 0.19 seconds

    Nodes    |    Current Node    |     Objective Bounds      |     Work
 Expl Unexpl |  Obj  Depth IntInf | Incumbent    BestBd   Gap | It/Node Time

     0     0   -4.61686    0  156    0.43972   -4.61686  1150%     -    0s
H    0     0                      -3.3067395   -4.61686  39.6%     -    0s
H    0     0                      -3.5967145   -4.61686  28.4%     -    0s
H    0     0                      -4.4479804   -4.61686  3.80%     -    0s
H    0     0                      -4.4961929   -4.61686  2.68%     -    0s
H    0     0                      -4.5995504   -4.61686  0.38%     -    1s
     0     2   -4.61686    0  152   -4.59955   -4.61686  0.38%     -    1s
H  314   304                      -4.6015605   -4.61686  0.33%   3.2    1s
H  362   195                      -4.6054402   -4.61656  0.24%   3.3    1s
H  363   144                      -4.6058235   -4.61656  0.23%   3.3    1s
*  475   189              98      -4.6059526   -4.61656  0.23%   4.4    1s
H  937   425                      -4.6065316   -4.61656  0.22%   5.9    1s
H 1016   450                      -4.6067626   -4.61655  0.21%   6.1    1s
H 1256   546                      -4.6068524   -4.61655  0.21%   8.0    3s
H 2005   748                      -4.6070503   -4.61655  0.21%   7.8    4s
  2763  1091   -4.60716  106   64   -4.60705   -4.61655  0.21%   7.6    5s

Explored 2940 nodes (24801 simplex iterations) in 5.00 seconds
Thread count was 4 (of 4 available processors)

Time limit reached
Best objective -4.607050254863e+00, best bound -4.616554094097e+00, gap 0.2063%
Optimize a model with 521 rows, 1019 columns and 6019 nonzeros
Model has 605 quadratic objective terms
Coefficient statistics:
  Matrix range    [1e-03, 5e+00]
  Objective range [2e-02, 9e+00]
  Bounds range    [1e-01, 1e+05]
  RHS range       [1e+00, 1e+02]
Found heuristic solution: objective 0.439723
Presolve removed 1 rows and 1 columns
Presolve time: 0.03s
Presolved: 520 rows, 1018 columns, 6010 nonzeros
Presolved model has 593 quadratic objective terms
Variable types: 518 continuous, 500 integer (500 binary)

Root relaxation: objective -4.616864e+00, 2504 iterations, 0.19 seconds

    Nodes    |    Current Node    |     Objective Bounds      |     Work
 Expl Unexpl |  Obj  Depth IntInf | Incumbent    BestBd   Gap | It/Node Time

     0     0   -4.61686    0  156    0.43972   -4.61686  1150%     -    0s
H    0     0                      -3.3067395   -4.61686  39.6%     -    0s
H    0     0                      -3.5967145   -4.61686  28.4%     -    0s
H    0     0                      -4.4961929   -4.61686  2.68%     -    0s
H    0     0                      -4.5995504   -4.61686  0.38%     -    0s
H    0     0                      -4.6050877   -4.61686  0.26%     -    2s
     0     2   -4.61686    0  156   -4.60509   -4.61686  0.26%     -    2s
H    3     4                      -4.6052545   -4.61686  0.25%   2.0    2s
*  332   232             100      -4.6057000   -4.61675  0.24%   3.6    3s
H  411   280                      -4.6069265   -4.61675  0.21%   4.1    4s
   711   451     cutoff  118        -4.60693   -4.61675  0.21%   5.6    5s

Explored 728 nodes (6739 simplex iterations) in 5.01 seconds
Thread count was 4 (of 4 available processors)

Time limit reached
Best objective -4.606926525263e+00, best bound -4.616748592425e+00, gap 0.2132%
Optimize a model with 521 rows, 1019 columns and 6019 nonzeros
Model has 605 quadratic objective terms
Coefficient statistics:
  Matrix range    [1e-03, 5e+00]
  Objective range [2e-02, 9e+00]
  Bounds range    [1e-01, 1e+05]
  RHS range       [1e+00, 1e+02]
Found heuristic solution: objective 0.439723
Presolve removed 1 rows and 1 columns
Presolve time: 0.03s
Presolved: 520 rows, 1018 columns, 6010 nonzeros
Presolved model has 593 quadratic objective terms
Variable types: 518 continuous, 500 integer (500 binary)
Presolve removed 501 rows and 500 columns
Presolved: 19 rows, 518 columns, 4510 nonzeros
Presolved model has 593 quadratic objective terms


Root relaxation: objective -4.616864e+00, 1170 iterations, 0.13 seconds

    Nodes    |    Current Node    |     Objective Bounds      |     Work
 Expl Unexpl |  Obj  Depth IntInf | Incumbent    BestBd   Gap | It/Node Time

     0     0   -4.61686    0  162    0.43972   -4.61686  1150%     -    0s
H    0     0                      -4.3667179   -4.61686  5.73%     -    0s
H    0     0                      -4.6068244   -4.61686  0.22%     -    0s
     0     2   -4.61686    0  152   -4.60682   -4.61686  0.22%     -    0s
*  369   344              92      -4.6069083   -4.61654  0.21%   3.5    0s
H  437   362                      -4.6069396   -4.61654  0.21%   4.1    1s
H  441   358                      -4.6071026   -4.61654  0.20%   4.1    1s
H 1536   836                      -4.6071331   -4.61647  0.20%   5.7    4s
  2666  1145   -4.61647   97   65   -4.60713   -4.61647  0.20%   5.7    5s

Explored 2720 nodes (16459 simplex iterations) in 5.00 seconds
Thread count was 4 (of 4 available processors)

Time limit reached
Best objective -4.607133053322e+00, best bound -4.616474634624e+00, gap 0.2028%
Optimize a model with 521 rows, 1019 columns and 6019 nonzeros
Model has 605 quadratic objective terms
Coefficient statistics:
  Matrix range    [1e-03, 5e+00]
  Objective range [2e-02, 9e+00]
  Bounds range    [1e-01, 1e+05]
  RHS range       [1e+00, 1e+02]
Found heuristic solution: objective 0.439723
Presolve removed 1 rows and 1 columns
Presolve time: 0.03s
Presolved: 520 rows, 1018 columns, 6010 nonzeros
Presolved model has 593 quadratic objective terms
Variable types: 518 continuous, 500 integer (500 binary)
Presolve removed 501 rows and 500 columns
Presolved: 19 rows, 518 columns, 4510 nonzeros
Presolved model has 593 quadratic objective terms


Root relaxation: objective -4.616864e+00, 1170 iterations, 0.13 seconds

    Nodes    |    Current Node    |     Objective Bounds      |     Work
 Expl Unexpl |  Obj  Depth IntInf | Incumbent    BestBd   Gap | It/Node Time

     0     0   -4.61686    0  162    0.43972   -4.61686  1150%     -    0s
H    0     0                      -4.3667179   -4.61686  5.73%     -    0s
H    0     0                      -4.6068244   -4.61686  0.22%     -    0s
     0     2   -4.61686    0  152   -4.60682   -4.61686  0.22%     -    0s
*  372   345              92      -4.6069083   -4.61656  0.21%   3.5    0s
H  408   359                      -4.6069265   -4.61656  0.21%   3.9    1s
H  409   353                      -4.6070982   -4.61656  0.21%   3.9    1s
